#######################



#######################
Set parameter TimeLimit to value 300
Set parameter SoftMemLimit to value 125
Set parameter LogFile to value 1202-MIPFocus0-Presolve2-TimeLimit300-k16x240-9.log
Set parameter Presolve to value 2
Set parameter Seed to value 9
Using license file /opt/gurobi/gurobi.lic

Gurobi Optimizer version 12.0.2 build v12.0.2rc0 (linux64 - "Ubuntu 22.04.4 LTS")
Copyright (c) 2025, Gurobi Optimization, LLC

Read MPS format model from file /miplib2010/k16x240.mps.bz2
Reading time = 0.00 seconds
k16x240: 256 rows, 480 columns, 960 nonzeros

Using Gurobi shared library /nfs/shared/static-builds/gurobi1202

CPU model: Intel(R) Xeon(R) E-2388G CPU @ 3.20GHz, instruction set [SSE2|AVX|AVX2|AVX512]
Thread count: 8 physical cores, 16 logical processors, using up to 16 threads

Non-default parameters:
TimeLimit  300
SoftMemLimit  125
Presolve  2
Seed  9

Optimize a model with 256 rows, 480 columns and 960 nonzeros
Model fingerprint: 0x4e80885f
Variable types: 240 continuous, 240 integer (240 binary)
Coefficient statistics:
  Matrix range     [1e+00, 1e+03]
  Objective range  [1e+00, 1e+03]
  Bounds range     [1e+00, 1e+03]
  RHS range        [4e+00, 4e+02]
Found heuristic solution: objective 21896.000000
Presolve time: 0.00s
Presolved: 256 rows, 480 columns, 960 nonzeros
Variable types: 240 continuous, 240 integer (240 binary)
Root relaxation presolve removed 241 rows and 240 columns
Root relaxation presolved: 15 rows, 240 columns, 450 nonzeros


Root relaxation: objective 2.769838e+03, 16 iterations, 0.00 seconds (0.00 work units)

    Nodes    |    Current Node    |     Objective Bounds      |     Work
 Expl Unexpl |  Obj  Depth IntInf | Incumbent    BestBd   Gap | It/Node Time

     0     0 2769.83800    0   14 21896.0000 2769.83800  87.4%     -    0s
H    0     0                    11359.000000 2769.83800  75.6%     -    0s
H    0     0                    11062.000000 2769.83800  75.0%     -    0s
     0     0 8062.79125    0   26 11062.0000 8062.79125  27.1%     -    0s
H    0     0                    10787.000000 8193.97780  24.0%     -    0s
     0     0 8193.97780    0   25 10787.0000 8193.97780  24.0%     -    0s
     0     0 8193.97780    0   26 10787.0000 8193.97780  24.0%     -    0s
     0     0 8528.16906    0   24 10787.0000 8528.16906  20.9%     -    0s
     0     0 8539.52379    0   32 10787.0000 8539.52379  20.8%     -    0s
     0     0 8548.03675    0   29 10787.0000 8548.03675  20.8%     -    0s
     0     0 8707.72966    0   34 10787.0000 8707.72966  19.3%     -    0s
H    0     0                    10765.000000 8709.24673  19.1%     -    0s
     0     0 8791.34027    0   30 10765.0000 8791.34027  18.3%     -    0s
     0     0 8794.96301    0   30 10765.0000 8794.96301  18.3%     -    0s
     0     0 8871.52606    0   30 10765.0000 8871.52606  17.6%     -    0s
     0     0 8887.95743    0   32 10765.0000 8887.95743  17.4%     -    0s
     0     0 8896.69979    0   29 10765.0000 8896.69979  17.4%     -    0s
     0     0 8897.09784    0   34 10765.0000 8897.09784  17.4%     -    0s
     0     0 9045.43159    0   31 10765.0000 9045.43159  16.0%     -    0s
     0     0 9053.73814    0   30 10765.0000 9053.73814  15.9%     -    0s
     0     0 9066.91102    0   31 10765.0000 9066.91102  15.8%     -    0s
     0     0 9067.93866    0   31 10765.0000 9067.93866  15.8%     -    0s
     0     2 9068.73394    0   31 10765.0000 9068.73394  15.8%     -    0s
H   27    64                    10763.000000 9129.74794  15.2%  45.1    0s
H  170   206                    10748.000000 9129.74794  15.1%  25.3    0s
H  180   206                    10678.000000 9129.74794  14.5%  25.2    0s
H 1934  1293                    10674.000000 9345.69553  12.4%  18.6    0s
 33642 11567     cutoff   28      10674.0000 10043.4577  5.91%  25.3    5s
 70143 15539 10527.0236   31   14 10674.0000 10239.2513  4.07%  26.3   10s
 108300 12669     cutoff   30      10674.0000 10387.4194  2.68%  26.3   15s

Cutting planes:
  Gomory: 1
  Lift-and-project: 25
  Cover: 71
  Implied bound: 17
  Dual implied bound: 33
  MIR: 183
  Flow cover: 287
  Flow path: 51
  Inf proof: 2
  Zero half: 4
  Network: 64
  Relax-and-lift: 3

Explored 139992 nodes (3544453 simplex iterations) in 18.78 seconds (26.24 work units)
Thread count was 16 (of 16 available processors)

Solution count 9: 10674 10678 10748 ... 21896

Optimal solution found (tolerance 1.00e-04)
Best objective 1.067400000000e+04, best bound 1.067400000000e+04, gap 0.0000%
